decision_x1=[0,2];
decision_x2=[0,2];
decision_x3=[0,2];
decision_x4=[0,2];
decision_x5=[0,2];
random_y1=[0,2];
constraint_x3_x1=[
0,0,7|
0,1,7.1|
0,2,2.4|
1,0,4.9|
1,1,8.4|
1,2,8.2|
2,0,2.7|
2,1,1.6|
2,2,8|
];
constraint_x3_x2=[
0,0,1.7|
0,1,0.74|
0,2,2|
1,0,9.6|
1,1,1.4|
1,2,3|
2,0,6|
2,1,8.1|
2,2,1.3|
];
constraint_x5_x1=[
0,0,1.7|
0,1,2.2|
0,2,2|
1,0,5.8|
1,1,9.5|
1,2,1.7|
2,0,8.8|
2,1,0.76|
2,2,4.5|
];
constraint_x5_x3=[
0,0,5.8|
0,1,1.6|
0,2,7.6|
1,0,9.1|
1,1,0.98|
1,2,0.12|
2,0,4.5|
2,1,0.63|
2,2,0.88|
];
constraint_x5_x4=[
0,0,5.5|
0,1,6.7|
0,2,4.7|
1,0,4.6|
1,1,2.3|
1,2,4.8|
2,0,7.5|
2,1,9.4|
2,2,8|
];
constraint_x1_y1=[
0,0,7.9|
0,1,0.71|
0,2,7.5|
1,0,1|
1,1,4.9|
1,2,9.6|
2,0,4.1|
2,1,3.3|
2,2,8.8|
];
initial_distribution_y1=[0.16,0.41,0.43];
transition_y1=[
0.44,0.51,0.05|
0.48,0.45,0.071|
0.53,0.19,0.28|
];
